% File represents an instance of a Composite Structure problem to be solved by a CP framework
% Created on 2025-03-26 10:42:16.655
T = 58;
n = 36;
m = 60;
edges = [(2, 1),
(8, 7),
(13, 14),
(19, 20),
(26, 25),
(32, 31),
(3, 2),
(9, 8),
(15, 14),
(21, 20),
(27, 26),
(32, 33),
(3, 4),
(9, 10),
(15, 16),
(22, 21),
(27, 28),
(34, 33),
(5, 4),
(10, 11),
(17, 16),
(23, 22),
(29, 28),
(34, 35),
(5, 6),
(11, 12),
(17, 18),
(23, 24),
(30, 29),
(35, 36),
(7, 1),
(13, 7),
(19, 13),
(19, 25),
(31, 25),
(8, 2),
(8, 14),
(20, 14),
(26, 20),
(32, 26),
(9, 3),
(9, 15),
(15, 21),
(27, 21),
(27, 33),
(10, 4),
(10, 16),
(22, 16),
(22, 28),
(34, 28),
(5, 11),
(17, 11),
(23, 17),
(23, 29),
(29, 35),
(6, 12),
(18, 12),
(24, 18),
(30, 24),
(30, 36)];
counts = [|10, 16, 10, 8,
|10, 18, 10, 10,
|10, 18, 10, 14,
|10, 18, 10, 12,
|10, 24, 10, 12,
|10, 24, 10, 10,
|10, 16, 10, 12,
|10, 20, 10, 14,
|10, 20, 10, 16,
|10, 20, 10, 14,
|10, 20, 10, 12,
|10, 20, 10, 10,
|10, 18, 10, 12,
|10, 16, 10, 12,
|10, 20, 10, 14,
|10, 20, 10, 12,
|12, 20, 12, 12,
|10, 20, 10, 12,
|12, 18, 12, 12,
|10, 18, 10, 12,
|10, 20, 10, 12,
|10, 22, 10, 12,
|12, 22, 12, 12,
|12, 20, 12, 12,
|12, 14, 12, 12,
|12, 18, 12, 12,
|12, 20, 12, 14,
|10, 20, 10, 12,
|12, 20, 12, 12,
|12, 20, 12, 14,
|12, 14, 12, 14,
|12, 18, 12, 14,
|12, 16, 12, 14,
|12, 20, 12, 14,
|12, 18, 12, 12,
|12, 16, 12, 12|];
